outputs/case_278.model.txt
marketing_purpose_data_used_outside = False
marketing_purpose_data_collected = True
subsidiaries_stop_data_use_immediately = False
customer_stop_data_use_notice_received = False
customer_data_change_method_sent_by_email = True
customer_data_change_method_sent_by_letter = False
business_scope_in_allowed_bank_business = True
business_scope_in_allowed_insurance_business = True
business_scope_in_allowed_securities_business = False
business_scope_in_allowed_futures_business = False
customer_opt_out_method_sent_by_email = True
customer_opt_out_method_sent_by_letter = False
disclosure_sent_by_letter = False
disclosure_sent_by_email = False
disclosure_posted_in_office = True
neq_customer_address = False
neq_customer_name = False
customer_data_disclosed_or_referred = True
data_disclosure_targets_disclosed = True
contract_disclosure_and_reporting = True
disclosure_of_data_use_and_measures = True
confidentiality_measures_established = True
contract_reported_to_authority = True
joint_marketing_business_scope_ok = True
data_collection_method_disclosed = True
contract_protection_mechanism_annotated = True
dedicated_unit_or_personnel_assigned = True
contract_data_usage_terms_disclose_subsidiary = True
customer_data_securely_stored = True
customer_opt_out_method_disclosed = True
fhc_joint_marketing_personal_data_protection_compliant = True
subsidiary_joint_marketing_customer_identifiable = True
customer_contract_data_usage_terms = True
customer_database_established = True
data_usage_purpose_disclosed = True
customer_data_confidentiality_and_security = True
subsidiary_joint_marketing_approval = True
customer_data_access_limited_to_authorized = True
customer_consent_for_data_usage = True
data_use_restricted = True
customer_notice_and_stop_data_use = True
disclosure_announced_on_website = True
subsidiary_customer_data_marketing_use_restriction = True
subsidiary_joint_marketing_personal_data_protection = True
organization_change_announcement = True
contract_important_content_disclosed = True
data_storage_and_custody_disclosed = True
subsidiary_data_transfer_and_confidentiality_agreement = True
data_classification_and_usage_scope_disclosed = True
contract_website_announcement_done = True
contract_transaction_risk_disclosed = True
customer_data_change_method_disclosed = True
data_security_and_protection_disclosed = True
contract_data_usage_terms_set = True
data_disclosed_to_third_party = False
disclosure_measures_content = True
penalty = False
fhc_joint_marketing_customer_identifiable = True
confidentiality_measures_disclosed = True
fhc_subsidiary_change_announced = True
data_use_subsidiary_names_disclosed = True
subsidiary_joint_marketing_no_customer_harm = True
disclosure_measures_written_or_email = True
fhc_joint_marketing_approved = True
confidentiality_agreement_established = True
fhc_joint_marketing_no_customer_harm = True